La   Li   Ti   O 
   1.00000000000000     
   7.7378000000000000   0.0000000000000000   0.0000000000000000
   0.0000000000000000   7.7378000000000000   0.0000000000000000
   0.0000000000000000   0.0000000000000000   7.7378000000000000
La   Li   Ti   O 
4  4  8  24  
Direct
  0.9934196396182128  0.9830490375846086  0.0258014929818897  
  0.4849895337431160  0.9914757259560816  0.0258012144038316  
  0.4934201023118225  0.4830490762533384  0.0258013639975746  
  0.9849885810631190  0.4914759236136911  0.0258004588252499  
  0.9658327283038888  0.9254129794452852  0.5259726152407164  
  0.9273454466686024  0.4639401921568633  0.5259648869167437  
  0.4273457897611898  0.9639397118243992  0.5259614486072773  
  0.4658331528353638  0.4254123128308326  0.5259697333009661  
  0.7496748049281222  0.2387394578284560  0.7579849262990499  
  0.2406738518433508  0.2477402329151671  0.7579865072847689  
  0.2407401765322895  0.2477400610624678  0.2936682197303243  
  0.7406740645154855  0.7477426087487437  0.7579873607334918  
  0.2496760475766628  0.7387390927097088  0.7579869509832441  
  0.7496737889666396  0.2388059753543721  0.2936702564319970  
  0.7407412715945628  0.7477406684824836  0.2936704789898611  
  0.2496736131219239  0.7388028623896720  0.2936700454297354  
  0.0086992304106282  0.3051314018134614  0.7401488545185547  
  0.7121266973253045  0.3053735877763920  0.5257769255743685  
  0.5131184794861429  0.2294604787231981  0.8192933487342634  
  0.2314935447468938  0.0111685775726919  0.2321908427029419  
  0.7314047963024247  0.5111770418036762  0.8192891697585273  
  0.0086919214403946  0.3049738930038019  0.3113222227691020  
  0.5086983239425361  0.8051354180243521  0.7401467266467252  
  0.3070767136775958  0.5067564667459384  0.7401516403331143  
  0.2121270649761334  0.8053715359275645  0.5257796344021152  
  0.0131191915484091  0.7294618611794869  0.8192943625607350  
  0.8070734377772757  0.0067564190962155  0.7401500313874029  
  0.3069195388628851  0.5067515097415243  0.3113237343981739  
  0.3073138982014632  0.2101920425234978  0.5257784058493149  
  0.5131106676936203  0.2295466152381871  0.2321894152301096  
  0.2314061309408726  0.0111763764800380  0.8192913945231826  
  0.0131120951535583  0.7295472019910317  0.2321883057147922  
  0.2275979054039188  0.2960110260209158  0.0257058781644685  
  0.8073119898508994  0.7101918972856496  0.5257793756610288  
  0.7314922330649594  0.5111685216788604  0.2321927671695395  
  0.7275966896554822  0.7960099057905297  0.0257043465188555  
  0.5086934354103887  0.8049759081646355  0.3113234218776690  
  0.7979548530752296  0.2256555364144333  0.0257063811826508  
  0.8069157932102523  0.0067516903772542  0.3113246771374830  
  0.2979587444583559  0.7256569174704853  0.0257055570281277  
